# Objective value = 7.3809523809523810e+01
FairSkew 2.3809523809523808e-02
S_0 1
S_1 0
S_2 0
S_3 1
S_4 1
S_5 1
S_6 1
S_7 0
S_8 0
S_9 0
S_10 0
S_11 1
S_12 0
S_13 0
S_14 0
S_15 0
S_16 0
y_1_0_3 0
y_1_0_4 0
y_1_0_5 0
y_1_0_6 0
y_1_0_7 0
y_1_0_8 0
y_1_3_4 0
y_1_3_5 0
y_1_3_6 0
y_1_3_7 0
y_1_3_8 0
y_1_4_5 0
y_1_4_6 0
y_1_4_7 0
y_1_4_8 0
y_1_5_6 0
y_1_5_7 0
y_1_5_8 0
y_1_6_7 0
y_1_6_8 0
y_1_7_8 0
y_2_0_3 0
y_2_0_4 0
y_2_0_5 0
y_2_0_6 0
y_2_0_7 0
y_2_0_8 1
y_2_3_4 0
y_2_3_5 0
y_2_3_6 0
y_2_3_7 0
y_2_3_8 0
y_2_4_5 0
y_2_4_6 0
y_2_4_7 0
y_2_4_8 0
y_2_5_6 0
y_2_5_7 0
y_2_5_8 0
y_2_6_7 0
y_2_6_8 0
y_2_7_8 0
y_3_0_3 0
y_3_0_4 0
y_3_0_5 0
y_3_0_6 0
y_3_0_7 0
y_3_0_8 0
y_3_3_4 0
y_3_3_5 0
y_3_3_6 0
y_3_3_7 0
y_3_3_8 0
y_3_4_5 0
y_3_4_6 0
y_3_4_7 0
y_3_4_8 0
y_3_5_6 0
y_3_5_7 0
y_3_5_8 0
y_3_6_7 0
y_3_6_8 0
y_3_7_8 0
y_4_0_3 0
y_4_0_4 0
y_4_0_5 0
y_4_0_6 0
y_4_0_7 0
y_4_0_8 1
y_4_3_4 0
y_4_3_5 0
y_4_3_6 0
y_4_3_7 0
y_4_3_8 0
y_4_4_5 0
y_4_4_6 0
y_4_4_7 0
y_4_4_8 0
y_4_5_6 0
y_4_5_7 0
y_4_5_8 0
y_4_6_7 0
y_4_6_8 0
y_4_7_8 0
y_5_0_3 0
y_5_0_4 0
y_5_0_5 0
y_5_0_6 0
y_5_0_7 0
y_5_0_8 0
y_5_3_4 0
y_5_3_5 0
y_5_3_6 0
y_5_3_7 0
y_5_3_8 0
y_5_4_5 0
y_5_4_6 0
y_5_4_7 0
y_5_4_8 0
y_5_5_6 0
y_5_5_7 0
y_5_5_8 0
y_5_6_7 1
y_5_6_8 0
y_5_7_8 0
y_6_0_3 0
y_6_0_4 0
y_6_0_5 0
y_6_0_6 0
y_6_0_7 0
y_6_0_8 0
y_6_3_4 1
y_6_3_5 0
y_6_3_6 0
y_6_3_7 1
y_6_3_8 0
y_6_4_5 0
y_6_4_6 0
y_6_4_7 1
y_6_4_8 0
y_6_5_6 0
y_6_5_7 0
y_6_5_8 0
y_6_6_7 0
y_6_6_8 1
y_6_7_8 0
y_7_0_3 0
y_7_0_4 0
y_7_0_5 1
y_7_0_6 0
y_7_0_7 0
y_7_0_8 0
y_7_3_4 0
y_7_3_5 1
y_7_3_6 0
y_7_3_7 0
y_7_3_8 1
y_7_4_5 1
y_7_4_6 0
y_7_4_7 0
y_7_4_8 0
y_7_5_6 1
y_7_5_7 1
y_7_5_8 1
y_7_6_7 0
y_7_6_8 0
y_7_7_8 0
y_8_3_4 0
y_8_3_5 0
y_8_3_6 0
y_8_3_7 1
y_8_3_8 1
y_8_4_5 0
y_8_4_6 0
y_8_4_7 1
y_8_4_8 0
y_8_5_6 0
y_8_5_7 0
y_8_5_8 0
y_8_6_7 0
y_8_6_8 0
y_8_7_8 0
y_9_3_4 0
y_9_3_5 0
y_9_3_6 1
y_9_3_7 1
y_9_3_8 0
y_9_4_5 0
y_9_4_6 0
y_9_4_7 0
y_9_4_8 0
y_9_5_6 0
y_9_5_7 0
y_9_5_8 0
y_9_6_7 0
y_9_6_8 1
y_9_7_8 0
y_10_3_4 0
y_10_3_5 0
y_10_3_6 0
y_10_3_7 0
y_10_3_8 0
y_10_3_9 0
y_10_4_5 0
y_10_4_6 0
y_10_4_7 0
y_10_4_8 0
y_10_4_9 0
y_10_5_6 0
y_10_5_7 0
y_10_5_8 0
y_10_5_9 0
y_10_6_7 0
y_10_6_8 0
y_10_6_9 0
y_10_7_8 0
y_10_7_9 0
y_10_8_9 0
y_11_3_4 0
y_11_3_5 0
y_11_3_7 0
y_11_3_8 0
y_11_3_9 0
y_11_4_5 0
y_11_4_7 0
y_11_4_8 0
y_11_4_9 0
y_11_5_7 0
y_11_5_8 0
y_11_5_9 0
y_11_7_8 0
y_11_7_9 0
y_11_8_9 0
y_12_3_4 0
y_12_3_5 0
y_12_3_7 0
y_12_3_8 1
y_12_3_9 0
y_12_4_5 0
y_12_4_7 0
y_12_4_8 0
y_12_4_9 0
y_12_5_7 0
y_12_5_8 0
y_12_5_9 0
y_12_7_8 0
y_12_7_9 0
y_12_8_9 0
y_13_3_4 0
y_13_3_5 0
y_13_3_7 0
y_13_3_8 1
y_13_3_9 0
y_13_4_5 0
y_13_4_7 0
y_13_4_8 0
y_13_4_9 1
y_13_5_7 0
y_13_5_8 1
y_13_5_9 0
y_13_7_8 0
y_13_7_9 0
y_13_8_9 0
y_14_3_4 0
y_14_3_5 0
y_14_3_7 0
y_14_3_8 0
y_14_3_9 0
y_14_4_5 0
y_14_4_7 0
y_14_4_8 0
y_14_4_9 0
y_14_5_7 0
y_14_5_8 1
y_14_5_9 0
y_14_7_8 0
y_14_7_9 0
y_14_8_9 0
y_15_3_4 1
y_15_3_5 0
y_15_3_7 0
y_15_3_8 0
y_15_3_9 0
y_15_4_5 0
y_15_4_7 1
y_15_4_8 1
y_15_4_9 0
y_15_5_7 0
y_15_5_8 0
y_15_5_9 0
y_15_7_8 0
y_15_7_9 0
y_15_8_9 0
y_16_3_4 0
y_16_3_5 0
y_16_3_7 0
y_16_3_8 1
y_16_3_9 0
y_16_4_5 0
y_16_4_7 0
y_16_4_8 0
y_16_4_9 0
y_16_5_7 0
y_16_5_8 0
y_16_5_9 0
y_16_7_8 0
y_16_7_9 0
y_16_8_9 0
y_17_3_4 0
y_17_3_5 0
y_17_3_7 0
y_17_3_8 0
y_17_3_9 0
y_17_3_10 0
y_17_4_5 0
y_17_4_7 0
y_17_4_8 0
y_17_4_9 0
y_17_4_10 0
y_17_5_7 0
y_17_5_8 0
y_17_5_9 0
y_17_5_10 0
y_17_7_8 0
y_17_7_9 0
y_17_7_10 0
y_17_8_9 0
y_17_8_10 0
y_17_9_10 0
y_18_3_4 0
y_18_3_5 0
y_18_3_7 0
y_18_3_8 0
y_18_3_9 0
y_18_3_10 0
y_18_4_5 0
y_18_4_7 0
y_18_4_8 0
y_18_4_9 0
y_18_4_10 0
y_18_5_7 0
y_18_5_8 0
y_18_5_9 0
y_18_5_10 0
y_18_7_8 0
y_18_7_9 0
y_18_7_10 0
y_18_8_9 0
y_18_8_10 0
y_18_9_10 0
y_19_3_4 0
y_19_3_5 0
y_19_3_7 0
y_19_3_8 1
y_19_3_9 0
y_19_3_11 0
y_19_4_5 0
y_19_4_7 0
y_19_4_8 0
y_19_4_9 0
y_19_4_11 0
y_19_5_7 0
y_19_5_8 0
y_19_5_9 0
y_19_5_11 0
y_19_7_8 0
y_19_7_9 0
y_19_7_11 0
y_19_8_9 0
y_19_8_11 0
y_19_9_11 0
y_20_3_4 0
y_20_3_5 0
y_20_3_7 0
y_20_3_8 0
y_20_3_9 0
y_20_3_11 0
y_20_4_5 1
y_20_4_7 0
y_20_4_8 0
y_20_4_9 0
y_20_4_11 0
y_20_5_7 0
y_20_5_8 1
y_20_5_9 0
y_20_5_11 0
y_20_7_8 0
y_20_7_9 0
y_20_7_11 0
y_20_8_9 0
y_20_8_11 0
y_20_9_11 0
y_21_3_4 0
y_21_3_5 0
y_21_3_7 0
y_21_3_8 0
y_21_3_9 0
y_21_3_11 0
y_21_4_5 0
y_21_4_7 0
y_21_4_8 0
y_21_4_9 0
y_21_4_11 0
y_21_5_7 0
y_21_5_8 0
y_21_5_9 0
y_21_5_11 0
y_21_7_8 0
y_21_7_9 0
y_21_7_11 0
y_21_8_9 0
y_21_8_11 0
y_21_9_11 0
y_22_3_4 0
y_22_3_5 0
y_22_3_7 0
y_22_3_8 0
y_22_3_11 0
y_22_3_13 0
y_22_4_5 0
y_22_4_7 0
y_22_4_8 0
y_22_4_11 0
y_22_4_13 0
y_22_5_7 0
y_22_5_8 0
y_22_5_11 0
y_22_5_13 0
y_22_7_8 0
y_22_7_11 0
y_22_7_13 0
y_22_8_11 0
y_22_8_13 0
y_22_11_13 0
y_23_3_4 0
y_23_3_5 0
y_23_3_7 0
y_23_3_8 0
y_23_3_11 0
y_23_3_13 0
y_23_4_5 0
y_23_4_7 0
y_23_4_8 0
y_23_4_11 0
y_23_4_13 0
y_23_5_7 0
y_23_5_8 1
y_23_5_11 0
y_23_5_13 0
y_23_7_8 0
y_23_7_11 0
y_23_7_13 0
y_23_8_11 0
y_23_8_13 0
y_23_11_13 0
y_24_3_4 0
y_24_3_5 0
y_24_3_7 0
y_24_3_8 0
y_24_3_11 0
y_24_3_13 0
y_24_4_5 0
y_24_4_7 0
y_24_4_8 1
y_24_4_11 0
y_24_4_13 0
y_24_5_7 0
y_24_5_8 1
y_24_5_11 0
y_24_5_13 0
y_24_7_8 0
y_24_7_11 0
y_24_7_13 0
y_24_8_11 0
y_24_8_13 0
y_24_11_13 0
y_25_3_4 0
y_25_3_5 0
y_25_3_7 1
y_25_3_8 0
y_25_3_11 0
y_25_3_13 0
y_25_4_5 0
y_25_4_7 0
y_25_4_8 1
y_25_4_11 0
y_25_4_13 0
y_25_5_7 0
y_25_5_8 0
y_25_5_11 0
y_25_5_13 0
y_25_7_8 0
y_25_7_11 0
y_25_7_13 0
y_25_8_11 0
y_25_8_13 0
y_25_11_13 0
y_26_3_4 0
y_26_3_5 0
y_26_3_7 0
y_26_3_8 0
y_26_3_11 0
y_26_3_13 0
y_26_4_5 0
y_26_4_7 0
y_26_4_8 0
y_26_4_11 0
y_26_4_13 0
y_26_5_7 0
y_26_5_8 0
y_26_5_11 0
y_26_5_13 0
y_26_7_8 0
y_26_7_11 0
y_26_7_13 0
y_26_8_11 0
y_26_8_13 0
y_26_11_13 0
y_27_3_4 0
y_27_3_5 0
y_27_3_7 0
y_27_3_8 0
y_27_3_11 0
y_27_3_13 0
y_27_4_5 0
y_27_4_7 0
y_27_4_8 1
y_27_4_11 0
y_27_4_13 0
y_27_5_7 0
y_27_5_8 0
y_27_5_11 0
y_27_5_13 0
y_27_7_8 0
y_27_7_11 0
y_27_7_13 0
y_27_8_11 0
y_27_8_13 0
y_27_11_13 0
y_28_4_5 0
y_28_4_7 0
y_28_4_8 1
y_28_4_11 0
y_28_4_13 0
y_28_5_7 0
y_28_5_8 0
y_28_5_11 0
y_28_5_13 0
y_28_7_8 0
y_28_7_11 0
y_28_7_13 0
y_28_8_11 0
y_28_8_13 0
y_28_11_13 0
y_29_4_5 0
y_29_4_7 0
y_29_4_8 0
y_29_4_11 0
y_29_4_13 0
y_29_5_7 0
y_29_5_8 1
y_29_5_11 0
y_29_5_13 0
y_29_7_8 0
y_29_7_11 0
y_29_7_13 0
y_29_8_11 0
y_29_8_13 0
y_29_11_13 0
y_30_4_5 0
y_30_4_7 0
y_30_4_8 0
y_30_4_11 0
y_30_4_13 0
y_30_5_7 0
y_30_5_8 0
y_30_5_11 0
y_30_5_13 0
y_30_7_8 0
y_30_7_11 0
y_30_7_13 0
y_30_8_11 0
y_30_8_13 0
y_30_11_13 1
y_31_4_5 0
y_31_4_7 0
y_31_4_8 0
y_31_4_13 0
y_31_5_7 0
y_31_5_8 0
y_31_5_13 0
y_31_7_8 0
y_31_7_13 0
y_31_8_13 0
y_32_4_5 0
y_32_4_7 0
y_32_4_8 1
y_32_4_13 0
y_32_5_7 0
y_32_5_8 1
y_32_5_13 0
y_32_7_8 0
y_32_7_13 0
y_32_8_13 0
y_33_5_7 0
y_33_5_8 1
y_33_5_13 0
y_33_7_8 0
y_33_7_13 0
y_33_8_13 0
y_34_5_7 0
y_34_5_8 0
y_34_5_13 0
y_34_7_8 0
y_34_7_13 0
y_34_8_13 0
y_35_5_7 0
y_35_5_8 0
y_35_5_13 0
y_35_7_8 0
y_35_7_13 0
y_35_8_13 0
y_36_5_7 0
y_36_5_8 0
y_36_5_13 0
y_36_5_16 0
y_36_7_8 0
y_36_7_13 0
y_36_7_16 0
y_36_8_13 0
y_36_8_16 0
y_36_13_16 0
y_37_5_7 0
y_37_5_8 0
y_37_5_16 0
y_37_7_8 0
y_37_7_16 0
y_37_8_16 0
x_1_0_3 1
x_2_0_3 1
x_1_0_4 1
x_2_0_4 1
x_1_0_5 1
x_2_0_5 1
x_1_0_6 1
x_2_0_6 1
x_1_0_7 1
x_2_0_7 1
x_1_0_8 1
x_2_0_8 1
x_1_3_4 0
x_2_3_4 0
x_1_3_5 1
x_2_3_5 1
x_1_3_6 0
x_2_3_6 0
x_1_3_7 0
x_2_3_7 0
x_1_3_8 0
x_2_3_8 0
x_1_4_5 1
x_2_4_5 1
x_1_4_6 0
x_2_4_6 0
x_1_4_7 0
x_2_4_7 0
x_1_4_8 0
x_2_4_8 0
x_1_5_6 0
x_2_5_6 0
x_1_5_7 0
x_2_5_7 0
x_1_5_8 0
x_2_5_8 0
x_1_6_7 0
x_2_6_7 0
x_1_6_8 0
x_2_6_8 0
x_1_7_8 0
x_2_7_8 0
x_3_0_3 1
x_3_0_4 1
x_3_0_5 1
x_3_0_6 1
x_3_0_7 1
x_3_0_8 0
x_3_3_4 0
x_3_3_5 1
x_3_3_6 0
x_3_3_7 0
x_3_3_8 0
x_3_4_5 1
x_3_4_6 0
x_3_4_7 0
x_3_4_8 0
x_3_5_6 0
x_3_5_7 0
x_3_5_8 0
x_3_6_7 0
x_3_6_8 0
x_3_7_8 0
x_4_0_3 1
x_4_0_4 1
x_4_0_5 1
x_4_0_6 1
x_4_0_7 1
x_4_0_8 0
x_4_3_4 0
x_4_3_5 1
x_4_3_6 0
x_4_3_7 0
x_4_3_8 0
x_4_4_5 1
x_4_4_6 0
x_4_4_7 0
x_4_4_8 0
x_4_5_6 0
x_4_5_7 0
x_4_5_8 0
x_4_6_7 0
x_4_6_8 0
x_4_7_8 0
x_5_0_3 1
x_5_0_4 1
x_5_0_5 1
x_5_0_6 1
x_5_0_7 1
x_5_0_8 1
x_5_3_4 0
x_5_3_5 1
x_5_3_6 0
x_5_3_7 0
x_5_3_8 0
x_5_4_5 1
x_5_4_6 0
x_5_4_7 0
x_5_4_8 0
x_5_5_6 0
x_5_5_7 0
x_5_5_8 0
x_5_6_7 0
x_5_6_8 0
x_5_7_8 0
x_6_0_3 1
x_6_0_4 1
x_6_0_5 1
x_6_0_6 1
x_6_0_7 1
x_6_0_8 1
x_6_3_4 0
x_6_3_5 1
x_6_3_6 0
x_6_3_7 0
x_6_3_8 0
x_6_4_5 1
x_6_4_6 0
x_6_4_7 0
x_6_4_8 0
x_6_5_6 0
x_6_5_7 0
x_6_5_8 0
x_6_6_7 1
x_6_6_8 0
x_6_7_8 0
x_7_0_3 1
x_7_0_4 1
x_7_0_5 1
x_7_0_6 1
x_7_0_7 1
x_7_0_8 1
x_7_3_4 1
x_7_3_5 1
x_7_3_6 0
x_7_3_7 1
x_7_3_8 0
x_7_4_5 1
x_7_4_6 0
x_7_4_7 1
x_7_4_8 0
x_7_5_6 0
x_7_5_7 0
x_7_5_8 0
x_7_6_7 1
x_7_6_8 1
x_7_7_8 0
x_8_0_3 1
x_8_0_4 1
x_8_0_5 0
x_8_0_6 1
x_8_0_7 1
x_8_0_8 1
x_8_3_4 1
x_8_3_5 0
x_8_3_6 0
x_8_3_7 1
x_8_3_8 1
x_8_4_5 0
x_8_4_6 0
x_8_4_7 1
x_8_4_8 0
x_8_5_6 1
x_8_5_7 1
x_8_5_8 1
x_8_6_7 1
x_8_6_8 1
x_8_7_8 0
x_9_3_4 1
x_9_3_5 0
x_9_3_6 0
x_9_3_7 0
x_9_3_8 0
x_9_4_5 0
x_9_4_6 0
x_9_4_7 0
x_9_4_8 0
x_9_5_6 1
x_9_5_7 1
x_9_5_8 1
x_9_6_7 1
x_9_6_8 1
x_9_7_8 0
x_10_3_4 1
x_10_3_5 0
x_10_3_6 1
x_10_3_7 1
x_10_3_8 0
x_10_4_5 0
x_10_4_6 0
x_10_4_7 0
x_10_4_8 0
x_10_5_6 1
x_10_5_7 1
x_10_5_8 1
x_10_6_7 1
x_10_6_8 0
x_10_7_8 0
x_11_3_4 1
x_11_3_5 0
x_11_3_6 1
x_11_3_7 1
x_11_3_8 0
x_10_3_9 1
x_11_3_9 1
x_11_4_5 0
x_11_4_6 0
x_11_4_7 0
x_11_4_8 0
x_10_4_9 0
x_11_4_9 0
x_11_5_6 1
x_11_5_7 1
x_11_5_8 1
x_10_5_9 1
x_11_5_9 1
x_11_6_7 1
x_11_6_8 0
x_10_6_9 1
x_11_6_9 1
x_11_7_8 0
x_10_7_9 1
x_11_7_9 1
x_10_8_9 1
x_11_8_9 1
x_12_3_4 1
x_12_3_5 0
x_12_3_7 1
x_12_3_8 0
x_12_3_9 1
x_12_4_5 0
x_12_4_7 0
x_12_4_8 0
x_12_4_9 0
x_12_5_7 1
x_12_5_8 1
x_12_5_9 1
x_12_7_8 0
x_12_7_9 1
x_12_8_9 1
x_13_3_4 1
x_13_3_5 0
x_13_3_7 1
x_13_3_8 1
x_13_3_9 1
x_13_4_5 0
x_13_4_7 0
x_13_4_8 0
x_13_4_9 0
x_13_5_7 1
x_13_5_8 1
x_13_5_9 1
x_13_7_8 0
x_13_7_9 1
x_13_8_9 1
x_14_3_4 1
x_14_3_5 0
x_14_3_7 1
x_14_3_8 0
x_14_3_9 1
x_14_4_5 0
x_14_4_7 0
x_14_4_8 0
x_14_4_9 1
x_14_5_7 1
x_14_5_8 0
x_14_5_9 1
x_14_7_8 0
x_14_7_9 1
x_14_8_9 1
x_15_3_4 1
x_15_3_5 0
x_15_3_7 1
x_15_3_8 0
x_15_3_9 1
x_15_4_5 0
x_15_4_7 0
x_15_4_8 0
x_15_4_9 1
x_15_5_7 1
x_15_5_8 1
x_15_5_9 1
x_15_7_8 0
x_15_7_9 1
x_15_8_9 1
x_16_3_4 0
x_16_3_5 0
x_16_3_7 1
x_16_3_8 0
x_16_3_9 1
x_16_4_5 0
x_16_4_7 1
x_16_4_8 1
x_16_4_9 1
x_16_5_7 1
x_16_5_8 1
x_16_5_9 1
x_16_7_8 0
x_16_7_9 1
x_16_8_9 1
x_17_3_4 0
x_17_3_5 0
x_17_3_7 1
x_17_3_8 1
x_17_3_9 1
x_17_4_5 0
x_17_4_7 1
x_17_4_8 1
x_17_4_9 1
x_17_5_7 1
x_17_5_8 1
x_17_5_9 1
x_17_7_8 0
x_17_7_9 1
x_17_8_9 1
x_18_3_4 0
x_18_3_5 0
x_18_3_7 1
x_18_3_8 1
x_18_3_9 1
x_17_3_10 1
x_18_3_10 1
x_18_4_5 0
x_18_4_7 1
x_18_4_8 1
x_18_4_9 1
x_17_4_10 1
x_18_4_10 1
x_18_5_7 1
x_18_5_8 1
x_18_5_9 1
x_17_5_10 1
x_18_5_10 1
x_18_7_8 0
x_18_7_9 1
x_17_7_10 0
x_18_7_10 0
x_18_8_9 1
x_17_8_10 1
x_18_8_10 1
x_17_9_10 0
x_18_9_10 0
x_19_3_4 0
x_19_3_5 0
x_19_3_7 1
x_19_3_8 1
x_19_3_9 1
x_19_3_10 1
x_19_4_5 0
x_19_4_7 1
x_19_4_8 1
x_19_4_9 1
x_19_4_10 1
x_19_5_7 1
x_19_5_8 1
x_19_5_9 1
x_19_5_10 1
x_19_7_8 0
x_19_7_9 1
x_19_7_10 0
x_19_8_9 1
x_19_8_10 1
x_19_9_10 0
x_20_3_4 0
x_20_3_5 0
x_20_3_7 1
x_20_3_8 0
x_20_3_9 1
x_19_3_11 1
x_20_3_11 1
x_20_4_5 0
x_20_4_7 1
x_20_4_8 1
x_20_4_9 1
x_19_4_11 1
x_20_4_11 1
x_20_5_7 1
x_20_5_8 1
x_20_5_9 1
x_19_5_11 1
x_20_5_11 1
x_20_7_8 0
x_20_7_9 1
x_19_7_11 1
x_20_7_11 1
x_20_8_9 1
x_19_8_11 1
x_20_8_11 1
x_19_9_11 1
x_20_9_11 1
x_21_3_4 0
x_21_3_5 0
x_21_3_7 1
x_21_3_8 0
x_21_3_9 1
x_21_3_11 1
x_21_4_5 1
x_21_4_7 1
x_21_4_8 1
x_21_4_9 1
x_21_4_11 1
x_21_5_7 1
x_21_5_8 0
x_21_5_9 1
x_21_5_11 1
x_21_7_8 0
x_21_7_9 1
x_21_7_11 1
x_21_8_9 1
x_21_8_11 1
x_21_9_11 1
x_22_3_4 0
x_22_3_5 0
x_22_3_7 1
x_22_3_8 0
x_22_3_9 1
x_22_3_11 1
x_22_4_5 1
x_22_4_7 1
x_22_4_8 1
x_22_4_9 1
x_22_4_11 1
x_22_5_7 1
x_22_5_8 0
x_22_5_9 1
x_22_5_11 1
x_22_7_8 0
x_22_7_9 1
x_22_7_11 1
x_22_8_9 1
x_22_8_11 1
x_22_9_11 1
x_23_3_4 0
x_23_3_5 0
x_23_3_7 1
x_23_3_8 0
x_23_3_11 1
x_22_3_13 1
x_23_3_13 1
x_23_4_5 1
x_23_4_7 1
x_23_4_8 1
x_23_4_11 1
x_22_4_13 1
x_23_4_13 1
x_23_5_7 1
x_23_5_8 0
x_23_5_11 1
x_22_5_13 1
x_23_5_13 1
x_23_7_8 0
x_23_7_11 1
x_22_7_13 1
x_23_7_13 1
x_23_8_11 1
x_22_8_13 1
x_23_8_13 1
x_22_11_13 0
x_23_11_13 0
x_24_3_4 0
x_24_3_5 0
x_24_3_7 1
x_24_3_8 0
x_24_3_11 1
x_24_3_13 1
x_24_4_5 1
x_24_4_7 1
x_24_4_8 1
x_24_4_11 1
x_24_4_13 1
x_24_5_7 1
x_24_5_8 1
x_24_5_11 1
x_24_5_13 1
x_24_7_8 0
x_24_7_11 1
x_24_7_13 1
x_24_8_11 1
x_24_8_13 1
x_24_11_13 0
x_25_3_4 0
x_25_3_5 0
x_25_3_7 1
x_25_3_8 0
x_25_3_11 1
x_25_3_13 1
x_25_4_5 1
x_25_4_7 1
x_25_4_8 0
x_25_4_11 1
x_25_4_13 1
x_25_5_7 1
x_25_5_8 0
x_25_5_11 1
x_25_5_13 1
x_25_7_8 0
x_25_7_11 1
x_25_7_13 1
x_25_8_11 1
x_25_8_13 1
x_25_11_13 0
x_26_3_4 0
x_26_3_5 0
x_26_3_7 0
x_26_3_8 0
x_26_3_11 1
x_26_3_13 1
x_26_4_5 1
x_26_4_7 1
x_26_4_8 1
x_26_4_11 1
x_26_4_13 1
x_26_5_7 1
x_26_5_8 0
x_26_5_11 1
x_26_5_13 1
x_26_7_8 0
x_26_7_11 1
x_26_7_13 1
x_26_8_11 1
x_26_8_13 1
x_26_11_13 0
x_27_3_4 0
x_27_3_5 0
x_27_3_7 0
x_27_3_8 0
x_27_3_11 1
x_27_3_13 1
x_27_4_5 1
x_27_4_7 1
x_27_4_8 1
x_27_4_11 1
x_27_4_13 1
x_27_5_7 1
x_27_5_8 0
x_27_5_11 1
x_27_5_13 1
x_27_7_8 0
x_27_7_11 1
x_27_7_13 1
x_27_8_11 1
x_27_8_13 1
x_27_11_13 0
x_28_3_4 0
x_28_3_5 0
x_28_3_7 0
x_28_3_8 0
x_28_3_11 1
x_28_3_13 1
x_28_4_5 1
x_28_4_7 1
x_28_4_8 0
x_28_4_11 1
x_28_4_13 1
x_28_5_7 1
x_28_5_8 0
x_28_5_11 1
x_28_5_13 1
x_28_7_8 0
x_28_7_11 1
x_28_7_13 1
x_28_8_11 1
x_28_8_13 1
x_28_11_13 0
x_29_4_5 1
x_29_4_7 1
x_29_4_8 1
x_29_4_11 1
x_29_4_13 1
x_29_5_7 1
x_29_5_8 0
x_29_5_11 1
x_29_5_13 1
x_29_7_8 0
x_29_7_11 1
x_29_7_13 1
x_29_8_11 1
x_29_8_13 1
x_29_11_13 0
x_30_4_5 1
x_30_4_7 1
x_30_4_8 1
x_30_4_11 1
x_30_4_13 1
x_30_5_7 1
x_30_5_8 1
x_30_5_11 1
x_30_5_13 1
x_30_7_8 0
x_30_7_11 1
x_30_7_13 1
x_30_8_11 1
x_30_8_13 1
x_30_11_13 0
x_31_4_5 1
x_31_4_7 1
x_31_4_8 1
x_31_4_11 1
x_31_4_13 1
x_31_5_7 1
x_31_5_8 1
x_31_5_11 1
x_31_5_13 1
x_31_7_8 0
x_31_7_11 1
x_31_7_13 1
x_31_8_11 1
x_31_8_13 1
x_31_11_13 1
x_32_4_5 1
x_32_4_7 1
x_32_4_8 1
x_32_4_13 1
x_32_5_7 1
x_32_5_8 1
x_32_5_13 1
x_32_7_8 0
x_32_7_13 1
x_32_8_13 1
x_33_4_5 1
x_33_4_7 1
x_33_4_8 0
x_33_4_13 1
x_33_5_7 1
x_33_5_8 0
x_33_5_13 1
x_33_7_8 0
x_33_7_13 1
x_33_8_13 1
x_34_5_7 1
x_34_5_8 1
x_34_5_13 1
x_34_7_8 0
x_34_7_13 1
x_34_8_13 1
x_35_5_7 1
x_35_5_8 1
x_35_5_13 1
x_35_7_8 0
x_35_7_13 1
x_35_8_13 1
x_36_5_7 1
x_36_5_8 1
x_36_5_13 1
x_36_7_8 0
x_36_7_13 1
x_36_8_13 1
x_37_5_7 1
x_37_5_8 1
x_37_5_13 1
x_36_5_16 1
x_37_5_16 1
x_37_7_8 0
x_37_7_13 1
x_36_7_16 0
x_37_7_16 0
x_37_8_13 1
x_36_8_16 0
x_37_8_16 0
x_36_13_16 0
x_37_13_16 0
x_38_5_7 1
x_38_5_8 1
x_38_5_16 1
x_38_7_8 0
x_38_7_16 0
x_38_8_16 0
x_0_0_1 1
x_0_1_0 0
x_1_0_2 1
x_1_2_0 0
x_1_3_0 0
x_1_4_0 0
x_1_5_0 0
x_1_6_0 0
x_1_7_0 0
x_1_8_0 0
x_1_2_3 0
x_1_3_2 1
x_1_2_4 0
x_1_4_2 1
x_1_2_5 0
x_1_5_2 1
x_1_2_6 0
x_1_6_2 1
x_1_2_7 0
x_1_7_2 1
x_1_2_8 0
x_1_8_2 1
x_1_4_3 1
x_1_5_3 0
x_1_6_3 1
x_1_7_3 1
x_1_8_3 1
x_1_5_4 0
x_1_6_4 1
x_1_7_4 1
x_1_8_4 1
x_1_6_5 1
x_1_7_5 1
x_1_8_5 1
x_1_7_6 1
x_1_8_6 1
x_1_8_7 1
x_2_3_0 0
x_2_4_0 0
x_2_5_0 0
x_2_6_0 0
x_2_7_0 0
x_2_8_0 0
x_2_4_3 1
x_2_5_3 0
x_2_6_3 1
x_2_7_3 1
x_2_8_3 1
x_2_5_4 0
x_2_6_4 1
x_2_7_4 1
x_2_8_4 1
x_2_6_5 1
x_2_7_5 1
x_2_8_5 1
x_2_7_6 1
x_2_8_6 1
x_2_8_7 1
x_3_3_0 0
x_3_4_0 0
x_3_5_0 0
x_3_6_0 0
x_3_7_0 0
x_3_8_0 1
x_3_4_3 1
x_3_5_3 0
x_3_6_3 1
x_3_7_3 1
x_3_8_3 1
x_3_5_4 0
x_3_6_4 1
x_3_7_4 1
x_3_8_4 1
x_3_6_5 1
x_3_7_5 1
x_3_8_5 1
x_3_7_6 1
x_3_8_6 1
x_3_8_7 1
x_4_3_0 0
x_4_4_0 0
x_4_5_0 0
x_4_6_0 0
x_4_7_0 0
x_4_8_0 1
x_4_4_3 1
x_4_5_3 0
x_4_6_3 1
x_4_7_3 1
x_4_8_3 1
x_4_5_4 0
x_4_6_4 1
x_4_7_4 1
x_4_8_4 1
x_4_6_5 1
x_4_7_5 1
x_4_8_5 1
x_4_7_6 1
x_4_8_6 1
x_4_8_7 1
x_5_3_0 0
x_5_4_0 0
x_5_5_0 0
x_5_6_0 0
x_5_7_0 0
x_5_8_0 0
x_5_4_3 1
x_5_5_3 0
x_5_6_3 1
x_5_7_3 1
x_5_8_3 1
x_5_5_4 0
x_5_6_4 1
x_5_7_4 1
x_5_8_4 1
x_5_6_5 1
x_5_7_5 1
x_5_8_5 1
x_5_7_6 1
x_5_8_6 1
x_5_8_7 1
x_6_3_0 0
x_6_4_0 0
x_6_5_0 0
x_6_6_0 0
x_6_7_0 0
x_6_8_0 0
x_6_4_3 1
x_6_5_3 0
x_6_6_3 1
x_6_7_3 1
x_6_8_3 1
x_6_5_4 0
x_6_6_4 1
x_6_7_4 1
x_6_8_4 1
x_6_6_5 1
x_6_7_5 1
x_6_8_5 1
x_6_7_6 0
x_6_8_6 1
x_6_8_7 1
x_7_3_0 0
x_7_4_0 0
x_7_5_0 0
x_7_6_0 0
x_7_7_0 0
x_7_8_0 0
x_7_4_3 0
x_7_5_3 0
x_7_6_3 1
x_7_7_3 0
x_7_8_3 1
x_7_5_4 0
x_7_6_4 1
x_7_7_4 0
x_7_8_4 1
x_7_6_5 1
x_7_7_5 1
x_7_8_5 1
x_7_7_6 0
x_7_8_6 0
x_7_8_7 1
x_8_3_0 0
x_8_4_0 0
x_8_5_0 1
x_8_6_0 0
x_8_7_0 0
x_8_8_0 0
x_8_4_3 0
x_8_5_3 1
x_8_6_3 1
x_8_7_3 0
x_8_8_3 0
x_8_5_4 1
x_8_6_4 1
x_8_7_4 0
x_8_8_4 1
x_8_6_5 0
x_8_7_5 0
x_8_8_5 0
x_8_7_6 0
x_8_8_6 0
x_8_8_7 1
x_9_4_3 0
x_9_5_3 1
x_9_6_3 1
x_9_7_3 1
x_9_8_3 1
x_9_5_4 1
x_9_6_4 1
x_9_7_4 1
x_9_8_4 1
x_9_6_5 0
x_9_7_5 0
x_9_8_5 0
x_9_7_6 0
x_9_8_6 0
x_9_8_7 1
x_10_4_3 0
x_10_5_3 1
x_10_6_3 0
x_10_7_3 0
x_10_8_3 1
x_10_9_3 0
x_10_5_4 1
x_10_6_4 1
x_10_7_4 1
x_10_8_4 1
x_10_9_4 1
x_10_6_5 0
x_10_7_5 0
x_10_8_5 0
x_10_9_5 0
x_10_7_6 0
x_10_8_6 1
x_10_9_6 0
x_10_8_7 1
x_10_9_7 0
x_10_9_8 0
x_11_4_3 0
x_11_5_3 1
x_11_6_3 0
x_11_7_3 0
x_11_8_3 1
x_11_9_3 0
x_11_5_4 1
x_11_6_4 1
x_11_7_4 1
x_11_8_4 1
x_11_9_4 1
x_11_6_5 0
x_11_7_5 0
x_11_8_5 0
x_11_9_5 0
x_11_7_6 0
x_11_8_6 1
x_11_9_6 0
x_11_8_7 1
x_11_9_7 0
x_11_9_8 0
x_12_4_3 0
x_12_5_3 1
x_12_7_3 0
x_12_8_3 1
x_12_9_3 0
x_12_5_4 1
x_12_7_4 1
x_12_8_4 1
x_12_9_4 1
x_12_7_5 0
x_12_8_5 0
x_12_9_5 0
x_12_8_7 1
x_12_9_7 0
x_12_9_8 0
x_13_4_3 0
x_13_5_3 1
x_13_7_3 0
x_13_8_3 0
x_13_9_3 0
x_13_5_4 1
x_13_7_4 1
x_13_8_4 1
x_13_9_4 1
x_13_7_5 0
x_13_8_5 0
x_13_9_5 0
x_13_8_7 1
x_13_9_7 0
x_13_9_8 0
x_14_4_3 0
x_14_5_3 1
x_14_7_3 0
x_14_8_3 1
x_14_9_3 0
x_14_5_4 1
x_14_7_4 1
x_14_8_4 1
x_14_9_4 0
x_14_7_5 0
x_14_8_5 1
x_14_9_5 0
x_14_8_7 1
x_14_9_7 0
x_14_9_8 0
x_15_4_3 0
x_15_5_3 1
x_15_7_3 0
x_15_8_3 1
x_15_9_3 0
x_15_5_4 1
x_15_7_4 1
x_15_8_4 1
x_15_9_4 0
x_15_7_5 0
x_15_8_5 0
x_15_9_5 0
x_15_8_7 1
x_15_9_7 0
x_15_9_8 0
x_16_4_3 1
x_16_5_3 1
x_16_7_3 0
x_16_8_3 1
x_16_9_3 0
x_16_5_4 1
x_16_7_4 0
x_16_8_4 0
x_16_9_4 0
x_16_7_5 0
x_16_8_5 0
x_16_9_5 0
x_16_8_7 1
x_16_9_7 0
x_16_9_8 0
x_17_4_3 1
x_17_5_3 1
x_17_7_3 0
x_17_8_3 0
x_17_9_3 0
x_17_10_3 0
x_17_5_4 1
x_17_7_4 0
x_17_8_4 0
x_17_9_4 0
x_17_10_4 0
x_17_7_5 0
x_17_8_5 0
x_17_9_5 0
x_17_10_5 0
x_17_8_7 1
x_17_9_7 0
x_17_10_7 1
x_17_9_8 0
x_17_10_8 0
x_17_10_9 1
x_18_4_3 1
x_18_5_3 1
x_18_7_3 0
x_18_8_3 0
x_18_9_3 0
x_18_10_3 0
x_18_5_4 1
x_18_7_4 0
x_18_8_4 0
x_18_9_4 0
x_18_10_4 0
x_18_7_5 0
x_18_8_5 0
x_18_9_5 0
x_18_10_5 0
x_18_8_7 1
x_18_9_7 0
x_18_10_7 1
x_18_9_8 0
x_18_10_8 0
x_18_10_9 1
x_19_4_3 1
x_19_5_3 1
x_19_7_3 0
x_19_8_3 0
x_19_9_3 0
x_19_10_3 0
x_19_11_3 0
x_19_5_4 1
x_19_7_4 0
x_19_8_4 0
x_19_9_4 0
x_19_10_4 0
x_19_11_4 0
x_19_7_5 0
x_19_8_5 0
x_19_9_5 0
x_19_10_5 0
x_19_11_5 0
x_19_8_7 1
x_19_9_7 0
x_19_10_7 1
x_19_11_7 0
x_19_9_8 0
x_19_10_8 0
x_19_11_8 0
x_19_10_9 1
x_19_11_9 0
x_19_10_11 1
x_19_11_10 0
x_20_4_3 1
x_20_5_3 1
x_20_7_3 0
x_20_8_3 1
x_20_9_3 0
x_20_11_3 0
x_20_3_12 0
x_20_12_3 1
x_20_5_4 1
x_20_7_4 0
x_20_8_4 0
x_20_9_4 0
x_20_11_4 0
x_20_4_12 0
x_20_12_4 1
x_20_7_5 0
x_20_8_5 0
x_20_9_5 0
x_20_11_5 0
x_20_5_12 0
x_20_12_5 1
x_20_8_7 1
x_20_9_7 0
x_20_11_7 0
x_20_7_12 0
x_20_12_7 1
x_20_9_8 0
x_20_11_8 0
x_20_8_12 0
x_20_12_8 1
x_20_11_9 0
x_20_9_12 0
x_20_12_9 1
x_20_11_12 0
x_20_12_11 1
x_21_4_3 1
x_21_5_3 1
x_21_7_3 0
x_21_8_3 1
x_21_9_3 0
x_21_11_3 0
x_21_5_4 0
x_21_7_4 0
x_21_8_4 0
x_21_9_4 0
x_21_11_4 0
x_21_7_5 0
x_21_8_5 1
x_21_9_5 0
x_21_11_5 0
x_21_8_7 1
x_21_9_7 0
x_21_11_7 0
x_21_9_8 0
x_21_11_8 0
x_21_11_9 0
x_22_4_3 1
x_22_5_3 1
x_22_7_3 0
x_22_8_3 1
x_22_9_3 0
x_22_11_3 0
x_22_13_3 0
x_22_5_4 0
x_22_7_4 0
x_22_8_4 0
x_22_9_4 0
x_22_11_4 0
x_22_13_4 0
x_22_7_5 0
x_22_8_5 1
x_22_9_5 0
x_22_11_5 0
x_22_13_5 0
x_22_8_7 1
x_22_9_7 0
x_22_11_7 0
x_22_13_7 0
x_22_9_8 0
x_22_11_8 0
x_22_13_8 0
x_22_11_9 0
x_22_9_13 0
x_22_13_9 1
x_22_13_11 1
x_23_4_3 1
x_23_5_3 1
x_23_7_3 0
x_23_8_3 1
x_23_11_3 0
x_23_13_3 0
x_23_5_4 0
x_23_7_4 0
x_23_8_4 0
x_23_11_4 0
x_23_13_4 0
x_23_7_5 0
x_23_8_5 1
x_23_11_5 0
x_23_13_5 0
x_23_8_7 1
x_23_11_7 0
x_23_13_7 0
x_23_11_8 0
x_23_13_8 0
x_23_13_11 1
x_24_4_3 1
x_24_5_3 1
x_24_7_3 0
x_24_8_3 1
x_24_11_3 0
x_24_13_3 0
x_24_5_4 0
x_24_7_4 0
x_24_8_4 0
x_24_11_4 0
x_24_13_4 0
x_24_7_5 0
x_24_8_5 0
x_24_11_5 0
x_24_13_5 0
x_24_8_7 1
x_24_11_7 0
x_24_13_7 0
x_24_11_8 0
x_24_13_8 0
x_24_13_11 1
x_25_4_3 1
x_25_5_3 1
x_25_7_3 0
x_25_8_3 1
x_25_11_3 0
x_25_13_3 0
x_25_5_4 0
x_25_7_4 0
x_25_8_4 1
x_25_11_4 0
x_25_13_4 0
x_25_7_5 0
x_25_8_5 1
x_25_11_5 0
x_25_13_5 0
x_25_8_7 1
x_25_11_7 0
x_25_13_7 0
x_25_11_8 0
x_25_13_8 0
x_25_13_11 1
x_26_4_3 1
x_26_5_3 1
x_26_7_3 1
x_26_8_3 1
x_26_11_3 0
x_26_13_3 0
x_26_5_4 0
x_26_7_4 0
x_26_8_4 0
x_26_11_4 0
x_26_13_4 0
x_26_7_5 0
x_26_8_5 1
x_26_11_5 0
x_26_13_5 0
x_26_8_7 1
x_26_11_7 0
x_26_13_7 0
x_26_11_8 0
x_26_13_8 0
x_26_13_11 1
x_27_4_3 1
x_27_5_3 1
x_27_7_3 1
x_27_8_3 1
x_27_11_3 0
x_27_13_3 0
x_27_5_4 0
x_27_7_4 0
x_27_8_4 0
x_27_11_4 0
x_27_13_4 0
x_27_7_5 0
x_27_8_5 1
x_27_11_5 0
x_27_13_5 0
x_27_8_7 1
x_27_11_7 0
x_27_13_7 0
x_27_11_8 0
x_27_13_8 0
x_27_13_11 1
x_28_4_3 1
x_28_5_3 1
x_28_7_3 1
x_28_8_3 1
x_28_11_3 0
x_28_13_3 0
x_28_5_4 0
x_28_7_4 0
x_28_8_4 1
x_28_11_4 0
x_28_13_4 0
x_28_7_5 0
x_28_8_5 1
x_28_11_5 0
x_28_13_5 0
x_28_8_7 1
x_28_11_7 0
x_28_13_7 0
x_28_11_8 0
x_28_13_8 0
x_28_13_11 1
x_29_5_4 0
x_29_7_4 0
x_29_8_4 0
x_29_11_4 0
x_29_13_4 0
x_29_7_5 0
x_29_8_5 1
x_29_11_5 0
x_29_13_5 0
x_29_8_7 1
x_29_11_7 0
x_29_13_7 0
x_29_11_8 0
x_29_13_8 0
x_29_13_11 1
x_30_5_4 0
x_30_7_4 0
x_30_8_4 0
x_30_11_4 0
x_30_13_4 0
x_30_4_14 1
x_30_14_4 0
x_30_7_5 0
x_30_8_5 0
x_30_11_5 0
x_30_13_5 0
x_30_5_14 1
x_30_14_5 0
x_30_8_7 1
x_30_11_7 0
x_30_13_7 0
x_30_7_14 0
x_30_14_7 1
x_30_11_8 0
x_30_13_8 0
x_30_8_14 1
x_30_14_8 0
x_30_13_11 1
x_30_11_14 0
x_30_14_11 1
x_30_13_14 0
x_30_14_13 1
x_31_5_4 0
x_31_7_4 0
x_31_8_4 0
x_31_11_4 0
x_31_13_4 0
x_31_7_5 0
x_31_8_5 0
x_31_11_5 0
x_31_13_5 0
x_31_8_7 1
x_31_11_7 0
x_31_13_7 0
x_31_11_8 0
x_31_13_8 0
x_31_13_11 0
x_32_5_4 0
x_32_7_4 0
x_32_8_4 0
x_32_13_4 0
x_32_7_5 0
x_32_8_5 0
x_32_13_5 0
x_32_8_7 1
x_32_13_7 0
x_32_13_8 0
x_33_5_4 0
x_33_7_4 0
x_33_8_4 1
x_33_13_4 0
x_33_7_5 0
x_33_8_5 1
x_33_13_5 0
x_33_8_7 1
x_33_13_7 0
x_33_13_8 0
x_34_7_5 0
x_34_8_5 0
x_34_13_5 0
x_34_5_15 1
x_34_15_5 0
x_34_8_7 1
x_34_13_7 0
x_34_7_15 0
x_34_15_7 1
x_34_13_8 0
x_34_8_15 1
x_34_15_8 0
x_34_13_15 0
x_34_15_13 1
x_35_7_5 0
x_35_8_5 0
x_35_13_5 0
x_35_8_7 1
x_35_13_7 0
x_35_13_8 0
x_36_7_5 0
x_36_8_5 0
x_36_13_5 0
x_36_16_5 0
x_36_8_7 1
x_36_13_7 0
x_36_16_7 1
x_36_13_8 0
x_36_16_8 1
x_36_16_13 1
x_37_7_5 0
x_37_8_5 0
x_37_13_5 0
x_37_16_5 0
x_37_8_7 1
x_37_13_7 0
x_37_16_7 1
x_37_13_8 0
x_37_16_8 1
x_37_16_13 1
x_38_7_5 0
x_38_8_5 0
x_38_16_5 0
x_38_8_7 1
x_38_16_7 1
x_38_16_8 1
